
Gurobi 10.0.1 (linux64) logging started Sun Nov 26 16:13:11 2023

Set parameter LogFile to value "ArtificialInstance/ExperimentV2/S2T5K3/AdRo/gurobiDoRo79.txt"
Gurobi Optimizer version 10.0.1 build v10.0.1rc0 (linux64)

CPU model: AMD EPYC 7H12 64-Core Processor, instruction set [SSE2|AVX|AVX2]
Thread count: 128 physical cores, 128 logical processors, using up to 32 threads

Academic license 656792 - for non-commercial use only - registered to b.___@student.vu.nl
Optimize a model with 16352 rows, 15139 columns and 59022 nonzeros
Model fingerprint: 0x035ac330
Variable types: 1 continuous, 15138 integer (15138 binary)
Coefficient statistics:
  Matrix range     [1e+00, 4e+01]
  Objective range  [1e+00, 2e+01]
  Bounds range     [1e+00, 1e+00]
  RHS range        [1e+00, 1e+00]
Presolve removed 8807 rows and 8254 columns
Presolve time: 0.18s
Presolved: 7545 rows, 6885 columns, 26865 nonzeros
Variable types: 1 continuous, 6884 integer (6884 binary)

Root relaxation: objective 1.022983e+02, 1780 iterations, 0.08 seconds (0.06 work units)

    Nodes    |    Current Node    |     Objective Bounds      |     Work
 Expl Unexpl |  Obj  Depth IntInf | Incumbent    BestBd   Gap | It/Node Time

     0     0  102.29834    0    8          -  102.29834      -     -    0s
H    0     0                     102.2983364  102.29834  0.00%     -    0s

Explored 1 nodes (1780 simplex iterations) in 0.36 seconds (0.26 work units)
Thread count was 32 (of 128 available processors)

Solution count 1: 102.298 

Optimal solution found (tolerance 1.00e-04)
Best objective 1.022983363723e+02, best bound 1.022983363723e+02, gap 0.0000%
